c Standarized MaxSat Instance
c{
c "sha1sum": "8067177e25cc9b33fc9e2ff53c3d9fb6e0588c10",
c "nvars": 60,
c "ncls": 1120,
c "nhards": 0,
c "nhard_len_stats":
c    { "min": 0, "max": 0, "ave": 0.00,
c      "stddev": 0.00 },
c "nsofts": 1120,
c "nsoft_len_stats":
c    { "min": 2, "max": 2, "ave": 2.00,
c      "stddev": 0.00 },
c "nsoft_wts": 10,
c "soft_wt_stats":
c    { "min": 1, "max": 10, "ave": 5.65,
c      "stddev": 2.81 }
c}
c------------------------------------------------------------
c Generated after 1 tries
c Graph with 60 nodes and 560 edges, Max edges:1770
p wcnf 60 1120 6331
9 1 5 0
9 -1 -5 0
4 1 6 0
4 -1 -6 0
8 1 8 0
8 -1 -8 0
8 1 12 0
8 -1 -12 0
10 1 14 0
10 -1 -14 0
2 1 15 0
2 -1 -15 0
4 1 16 0
4 -1 -16 0
8 1 21 0
8 -1 -21 0
3 1 22 0
3 -1 -22 0
6 1 28 0
6 -1 -28 0
5 1 34 0
5 -1 -34 0
7 1 35 0
7 -1 -35 0
4 1 39 0
4 -1 -39 0
6 1 42 0
6 -1 -42 0
10 1 43 0
10 -1 -43 0
10 1 44 0
10 -1 -44 0
7 1 46 0
7 -1 -46 0
8 1 48 0
8 -1 -48 0
2 1 49 0
2 -1 -49 0
7 1 52 0
7 -1 -52 0
1 1 53 0
1 -1 -53 0
3 1 55 0
3 -1 -55 0
2 2 3 0
2 -2 -3 0
9 2 4 0
9 -2 -4 0
2 2 11 0
2 -2 -11 0
5 2 12 0
5 -2 -12 0
2 2 13 0
2 -2 -13 0
2 2 15 0
2 -2 -15 0
10 2 21 0
10 -2 -21 0
3 2 23 0
3 -2 -23 0
6 2 29 0
6 -2 -29 0
9 2 31 0
9 -2 -31 0
7 2 32 0
7 -2 -32 0
3 2 35 0
3 -2 -35 0
7 2 37 0
7 -2 -37 0
6 2 48 0
6 -2 -48 0
5 2 51 0
5 -2 -51 0
10 2 52 0
10 -2 -52 0
3 2 59 0
3 -2 -59 0
8 3 6 0
8 -3 -6 0
6 3 9 0
6 -3 -9 0
8 3 11 0
8 -3 -11 0
5 3 13 0
5 -3 -13 0
9 3 21 0
9 -3 -21 0
3 3 23 0
3 -3 -23 0
4 3 24 0
4 -3 -24 0
9 3 25 0
9 -3 -25 0
10 3 28 0
10 -3 -28 0
1 3 29 0
1 -3 -29 0
10 3 34 0
10 -3 -34 0
6 3 41 0
6 -3 -41 0
1 3 44 0
1 -3 -44 0
2 3 45 0
2 -3 -45 0
7 3 47 0
7 -3 -47 0
9 3 48 0
9 -3 -48 0
4 3 49 0
4 -3 -49 0
1 3 53 0
1 -3 -53 0
1 3 56 0
1 -3 -56 0
5 3 59 0
5 -3 -59 0
1 3 60 0
1 -3 -60 0
3 4 9 0
3 -4 -9 0
10 4 11 0
10 -4 -11 0
10 4 14 0
10 -4 -14 0
9 4 17 0
9 -4 -17 0
3 4 18 0
3 -4 -18 0
6 4 24 0
6 -4 -24 0
4 4 28 0
4 -4 -28 0
8 4 39 0
8 -4 -39 0
6 4 40 0
6 -4 -40 0
7 4 43 0
7 -4 -43 0
6 4 44 0
6 -4 -44 0
1 4 47 0
1 -4 -47 0
5 4 56 0
5 -4 -56 0
10 4 57 0
10 -4 -57 0
10 5 8 0
10 -5 -8 0
8 5 15 0
8 -5 -15 0
3 5 19 0
3 -5 -19 0
8 5 20 0
8 -5 -20 0
7 5 28 0
7 -5 -28 0
4 5 31 0
4 -5 -31 0
7 5 35 0
7 -5 -35 0
2 5 38 0
2 -5 -38 0
5 5 39 0
5 -5 -39 0
9 5 42 0
9 -5 -42 0
9 5 43 0
9 -5 -43 0
4 5 48 0
4 -5 -48 0
3 5 49 0
3 -5 -49 0
9 5 50 0
9 -5 -50 0
4 5 58 0
4 -5 -58 0
7 6 8 0
7 -6 -8 0
10 6 9 0
10 -6 -9 0
6 6 13 0
6 -6 -13 0
7 6 16 0
7 -6 -16 0
9 6 17 0
9 -6 -17 0
5 6 20 0
5 -6 -20 0
10 6 21 0
10 -6 -21 0
4 6 28 0
4 -6 -28 0
9 6 34 0
9 -6 -34 0
7 6 37 0
7 -6 -37 0
10 6 39 0
10 -6 -39 0
5 6 41 0
5 -6 -41 0
3 6 42 0
3 -6 -42 0
10 6 44 0
10 -6 -44 0
10 6 45 0
10 -6 -45 0
2 6 46 0
2 -6 -46 0
9 6 52 0
9 -6 -52 0
7 6 53 0
7 -6 -53 0
5 6 54 0
5 -6 -54 0
7 6 56 0
7 -6 -56 0
3 6 57 0
3 -6 -57 0
8 7 8 0
8 -7 -8 0
4 7 12 0
4 -7 -12 0
5 7 17 0
5 -7 -17 0
3 7 20 0
3 -7 -20 0
2 7 22 0
2 -7 -22 0
3 7 24 0
3 -7 -24 0
6 7 26 0
6 -7 -26 0
5 7 28 0
5 -7 -28 0
2 7 31 0
2 -7 -31 0
10 7 33 0
10 -7 -33 0
2 7 43 0
2 -7 -43 0
2 7 44 0
2 -7 -44 0
5 7 50 0
5 -7 -50 0
8 7 51 0
8 -7 -51 0
10 7 59 0
10 -7 -59 0
10 7 60 0
10 -7 -60 0
7 8 9 0
7 -8 -9 0
4 8 10 0
4 -8 -10 0
8 8 11 0
8 -8 -11 0
4 8 16 0
4 -8 -16 0
3 8 29 0
3 -8 -29 0
3 8 33 0
3 -8 -33 0
6 8 39 0
6 -8 -39 0
3 8 43 0
3 -8 -43 0
2 8 49 0
2 -8 -49 0
8 8 51 0
8 -8 -51 0
2 8 56 0
2 -8 -56 0
8 8 57 0
8 -8 -57 0
2 8 58 0
2 -8 -58 0
8 8 60 0
8 -8 -60 0
1 9 13 0
1 -9 -13 0
10 9 14 0
10 -9 -14 0
1 9 27 0
1 -9 -27 0
6 9 31 0
6 -9 -31 0
2 9 34 0
2 -9 -34 0
3 9 35 0
3 -9 -35 0
8 9 37 0
8 -9 -37 0
8 9 38 0
8 -9 -38 0
7 9 45 0
7 -9 -45 0
10 9 50 0
10 -9 -50 0
7 9 51 0
7 -9 -51 0
8 9 52 0
8 -9 -52 0
1 9 60 0
1 -9 -60 0
2 10 11 0
2 -10 -11 0
6 10 14 0
6 -10 -14 0
1 10 16 0
1 -10 -16 0
1 10 17 0
1 -10 -17 0
3 10 19 0
3 -10 -19 0
5 10 21 0
5 -10 -21 0
9 10 23 0
9 -10 -23 0
6 10 24 0
6 -10 -24 0
8 10 26 0
8 -10 -26 0
1 10 27 0
1 -10 -27 0
2 10 30 0
2 -10 -30 0
10 10 32 0
10 -10 -32 0
3 10 45 0
3 -10 -45 0
9 10 49 0
9 -10 -49 0
2 10 50 0
2 -10 -50 0
10 10 51 0
10 -10 -51 0
1 10 52 0
1 -10 -52 0
9 11 12 0
9 -11 -12 0
1 11 18 0
1 -11 -18 0
1 11 19 0
1 -11 -19 0
10 11 23 0
10 -11 -23 0
6 11 25 0
6 -11 -25 0
2 11 26 0
2 -11 -26 0
2 11 29 0
2 -11 -29 0
4 11 31 0
4 -11 -31 0
10 11 32 0
10 -11 -32 0
9 11 33 0
9 -11 -33 0
4 11 34 0
4 -11 -34 0
6 11 35 0
6 -11 -35 0
6 11 39 0
6 -11 -39 0
5 11 43 0
5 -11 -43 0
7 11 44 0
7 -11 -44 0
1 11 45 0
1 -11 -45 0
6 11 47 0
6 -11 -47 0
8 11 49 0
8 -11 -49 0
4 11 53 0
4 -11 -53 0
10 11 54 0
10 -11 -54 0
6 11 57 0
6 -11 -57 0
9 11 60 0
9 -11 -60 0
8 12 17 0
8 -12 -17 0
7 12 21 0
7 -12 -21 0
1 12 22 0
1 -12 -22 0
8 12 30 0
8 -12 -30 0
9 12 32 0
9 -12 -32 0
10 12 33 0
10 -12 -33 0
9 12 44 0
9 -12 -44 0
9 12 49 0
9 -12 -49 0
10 12 50 0
10 -12 -50 0
8 12 51 0
8 -12 -51 0
10 12 55 0
10 -12 -55 0
10 12 57 0
10 -12 -57 0
7 13 14 0
7 -13 -14 0
5 13 15 0
5 -13 -15 0
2 13 17 0
2 -13 -17 0
9 13 26 0
9 -13 -26 0
9 13 31 0
9 -13 -31 0
1 13 40 0
1 -13 -40 0
7 13 41 0
7 -13 -41 0
3 13 42 0
3 -13 -42 0
7 13 44 0
7 -13 -44 0
3 13 46 0
3 -13 -46 0
8 13 47 0
8 -13 -47 0
4 13 50 0
4 -13 -50 0
4 13 51 0
4 -13 -51 0
3 13 55 0
3 -13 -55 0
1 13 56 0
1 -13 -56 0
7 13 58 0
7 -13 -58 0
3 14 16 0
3 -14 -16 0
7 14 21 0
7 -14 -21 0
6 14 22 0
6 -14 -22 0
10 14 25 0
10 -14 -25 0
3 14 32 0
3 -14 -32 0
6 14 33 0
6 -14 -33 0
8 14 34 0
8 -14 -34 0
2 14 36 0
2 -14 -36 0
5 14 37 0
5 -14 -37 0
6 14 42 0
6 -14 -42 0
10 14 45 0
10 -14 -45 0
5 14 49 0
5 -14 -49 0
4 14 59 0
4 -14 -59 0
9 15 19 0
9 -15 -19 0
5 15 23 0
5 -15 -23 0
1 15 24 0
1 -15 -24 0
4 15 25 0
4 -15 -25 0
6 15 29 0
6 -15 -29 0
9 15 31 0
9 -15 -31 0
3 15 38 0
3 -15 -38 0
7 15 42 0
7 -15 -42 0
5 15 44 0
5 -15 -44 0
5 15 49 0
5 -15 -49 0
4 15 54 0
4 -15 -54 0
8 15 58 0
8 -15 -58 0
2 15 60 0
2 -15 -60 0
7 16 17 0
7 -16 -17 0
1 16 24 0
1 -16 -24 0
5 16 30 0
5 -16 -30 0
7 16 31 0
7 -16 -31 0
7 16 39 0
7 -16 -39 0
7 16 40 0
7 -16 -40 0
4 16 42 0
4 -16 -42 0
2 16 60 0
2 -16 -60 0
7 17 18 0
7 -17 -18 0
7 17 26 0
7 -17 -26 0
8 17 31 0
8 -17 -31 0
4 17 32 0
4 -17 -32 0
8 17 34 0
8 -17 -34 0
3 17 39 0
3 -17 -39 0
10 17 43 0
10 -17 -43 0
7 17 44 0
7 -17 -44 0
7 17 45 0
7 -17 -45 0
3 17 49 0
3 -17 -49 0
6 17 50 0
6 -17 -50 0
1 17 51 0
1 -17 -51 0
3 17 53 0
3 -17 -53 0
9 17 54 0
9 -17 -54 0
7 17 55 0
7 -17 -55 0
1 18 19 0
1 -18 -19 0
2 18 24 0
2 -18 -24 0
4 18 33 0
4 -18 -33 0
6 18 38 0
6 -18 -38 0
6 18 40 0
6 -18 -40 0
7 18 46 0
7 -18 -46 0
3 18 48 0
3 -18 -48 0
8 18 52 0
8 -18 -52 0
3 18 53 0
3 -18 -53 0
4 18 54 0
4 -18 -54 0
2 19 21 0
2 -19 -21 0
10 19 25 0
10 -19 -25 0
1 19 26 0
1 -19 -26 0
9 19 31 0
9 -19 -31 0
4 19 33 0
4 -19 -33 0
2 19 41 0
2 -19 -41 0
5 19 44 0
5 -19 -44 0
10 19 51 0
10 -19 -51 0
10 19 52 0
10 -19 -52 0
8 19 59 0
8 -19 -59 0
7 20 21 0
7 -20 -21 0
2 20 28 0
2 -20 -28 0
7 20 30 0
7 -20 -30 0
4 20 31 0
4 -20 -31 0
8 20 32 0
8 -20 -32 0
10 20 36 0
10 -20 -36 0
10 20 38 0
10 -20 -38 0
9 20 39 0
9 -20 -39 0
3 20 45 0
3 -20 -45 0
8 20 52 0
8 -20 -52 0
6 20 56 0
6 -20 -56 0
3 20 57 0
3 -20 -57 0
10 20 59 0
10 -20 -59 0
10 21 23 0
10 -21 -23 0
9 21 25 0
9 -21 -25 0
5 21 26 0
5 -21 -26 0
6 21 30 0
6 -21 -30 0
2 21 32 0
2 -21 -32 0
3 21 33 0
3 -21 -33 0
9 21 34 0
9 -21 -34 0
5 21 38 0
5 -21 -38 0
5 21 42 0
5 -21 -42 0
9 21 44 0
9 -21 -44 0
5 21 53 0
5 -21 -53 0
3 21 57 0
3 -21 -57 0
2 21 58 0
2 -21 -58 0
7 22 24 0
7 -22 -24 0
8 22 25 0
8 -22 -25 0
2 22 30 0
2 -22 -30 0
7 22 35 0
7 -22 -35 0
5 22 37 0
5 -22 -37 0
9 22 39 0
9 -22 -39 0
8 22 40 0
8 -22 -40 0
2 22 41 0
2 -22 -41 0
3 22 44 0
3 -22 -44 0
5 22 45 0
5 -22 -45 0
2 22 47 0
2 -22 -47 0
2 22 49 0
2 -22 -49 0
4 22 54 0
4 -22 -54 0
4 22 57 0
4 -22 -57 0
10 22 58 0
10 -22 -58 0
10 22 60 0
10 -22 -60 0
7 23 30 0
7 -23 -30 0
9 23 37 0
9 -23 -37 0
9 23 40 0
9 -23 -40 0
5 23 44 0
5 -23 -44 0
4 23 48 0
4 -23 -48 0
4 23 50 0
4 -23 -50 0
7 23 57 0
7 -23 -57 0
7 23 59 0
7 -23 -59 0
3 24 25 0
3 -24 -25 0
2 24 30 0
2 -24 -30 0
1 24 31 0
1 -24 -31 0
2 24 34 0
2 -24 -34 0
7 24 43 0
7 -24 -43 0
4 24 45 0
4 -24 -45 0
3 24 47 0
3 -24 -47 0
4 24 49 0
4 -24 -49 0
1 24 52 0
1 -24 -52 0
5 24 56 0
5 -24 -56 0
10 24 57 0
10 -24 -57 0
6 24 59 0
6 -24 -59 0
3 25 27 0
3 -25 -27 0
7 25 29 0
7 -25 -29 0
8 25 33 0
8 -25 -33 0
5 25 35 0
5 -25 -35 0
2 25 38 0
2 -25 -38 0
9 25 40 0
9 -25 -40 0
7 25 42 0
7 -25 -42 0
6 25 44 0
6 -25 -44 0
3 25 47 0
3 -25 -47 0
6 25 49 0
6 -25 -49 0
5 25 50 0
5 -25 -50 0
9 25 52 0
9 -25 -52 0
4 25 53 0
4 -25 -53 0
3 25 54 0
3 -25 -54 0
4 25 55 0
4 -25 -55 0
8 25 57 0
8 -25 -57 0
7 25 60 0
7 -25 -60 0
10 26 28 0
10 -26 -28 0
4 26 30 0
4 -26 -30 0
9 26 32 0
9 -26 -32 0
2 26 33 0
2 -26 -33 0
5 26 36 0
5 -26 -36 0
1 26 48 0
1 -26 -48 0
8 27 28 0
8 -27 -28 0
8 27 35 0
8 -27 -35 0
3 27 36 0
3 -27 -36 0
2 27 38 0
2 -27 -38 0
9 27 39 0
9 -27 -39 0
8 27 40 0
8 -27 -40 0
1 27 47 0
1 -27 -47 0
5 27 52 0
5 -27 -52 0
10 27 53 0
10 -27 -53 0
8 27 54 0
8 -27 -54 0
3 27 56 0
3 -27 -56 0
5 27 57 0
5 -27 -57 0
9 27 58 0
9 -27 -58 0
1 28 29 0
1 -28 -29 0
1 28 31 0
1 -28 -31 0
4 28 33 0
4 -28 -33 0
4 28 35 0
4 -28 -35 0
7 28 36 0
7 -28 -36 0
9 28 40 0
9 -28 -40 0
2 28 43 0
2 -28 -43 0
1 28 45 0
1 -28 -45 0
1 28 46 0
1 -28 -46 0
5 28 48 0
5 -28 -48 0
8 28 54 0
8 -28 -54 0
7 28 59 0
7 -28 -59 0
5 29 31 0
5 -29 -31 0
2 29 41 0
2 -29 -41 0
6 29 43 0
6 -29 -43 0
6 29 46 0
6 -29 -46 0
6 29 51 0
6 -29 -51 0
6 30 33 0
6 -30 -33 0
4 30 34 0
4 -30 -34 0
4 30 36 0
4 -30 -36 0
9 30 41 0
9 -30 -41 0
5 30 48 0
5 -30 -48 0
2 30 56 0
2 -30 -56 0
7 30 57 0
7 -30 -57 0
6 30 60 0
6 -30 -60 0
7 31 32 0
7 -31 -32 0
6 31 34 0
6 -31 -34 0
3 31 38 0
3 -31 -38 0
9 31 40 0
9 -31 -40 0
1 31 41 0
1 -31 -41 0
1 31 43 0
1 -31 -43 0
10 31 46 0
10 -31 -46 0
2 31 49 0
2 -31 -49 0
5 31 50 0
5 -31 -50 0
3 31 51 0
3 -31 -51 0
9 31 53 0
9 -31 -53 0
3 31 54 0
3 -31 -54 0
4 31 58 0
4 -31 -58 0
9 31 59 0
9 -31 -59 0
4 32 33 0
4 -32 -33 0
9 32 38 0
9 -32 -38 0
7 32 40 0
7 -32 -40 0
1 32 42 0
1 -32 -42 0
3 32 45 0
3 -32 -45 0
8 32 47 0
8 -32 -47 0
7 32 48 0
7 -32 -48 0
9 32 49 0
9 -32 -49 0
4 32 51 0
4 -32 -51 0
3 32 52 0
3 -32 -52 0
2 32 53 0
2 -32 -53 0
7 32 55 0
7 -32 -55 0
2 32 60 0
2 -32 -60 0
7 33 40 0
7 -33 -40 0
8 33 43 0
8 -33 -43 0
8 33 45 0
8 -33 -45 0
3 33 50 0
3 -33 -50 0
5 33 53 0
5 -33 -53 0
4 33 54 0
4 -33 -54 0
5 33 59 0
5 -33 -59 0
3 34 37 0
3 -34 -37 0
4 34 39 0
4 -34 -39 0
6 34 46 0
6 -34 -46 0
2 34 49 0
2 -34 -49 0
6 34 50 0
6 -34 -50 0
1 34 54 0
1 -34 -54 0
4 34 57 0
4 -34 -57 0
4 34 58 0
4 -34 -58 0
4 35 41 0
4 -35 -41 0
8 35 42 0
8 -35 -42 0
3 35 45 0
3 -35 -45 0
7 35 51 0
7 -35 -51 0
6 35 52 0
6 -35 -52 0
10 35 53 0
10 -35 -53 0
7 35 54 0
7 -35 -54 0
9 35 60 0
9 -35 -60 0
7 36 40 0
7 -36 -40 0
4 36 49 0
4 -36 -49 0
7 36 50 0
7 -36 -50 0
1 36 51 0
1 -36 -51 0
6 36 56 0
6 -36 -56 0
9 36 57 0
9 -36 -57 0
7 36 59 0
7 -36 -59 0
7 36 60 0
7 -36 -60 0
6 37 39 0
6 -37 -39 0
5 37 41 0
5 -37 -41 0
4 37 45 0
4 -37 -45 0
8 37 46 0
8 -37 -46 0
9 37 53 0
9 -37 -53 0
7 37 54 0
7 -37 -54 0
2 37 57 0
2 -37 -57 0
1 38 40 0
1 -38 -40 0
1 38 43 0
1 -38 -43 0
7 38 45 0
7 -38 -45 0
2 38 50 0
2 -38 -50 0
7 38 51 0
7 -38 -51 0
8 38 56 0
8 -38 -56 0
6 38 57 0
6 -38 -57 0
1 38 58 0
1 -38 -58 0
1 38 60 0
1 -38 -60 0
4 39 44 0
4 -39 -44 0
3 39 45 0
3 -39 -45 0
7 39 49 0
7 -39 -49 0
9 39 51 0
9 -39 -51 0
2 39 55 0
2 -39 -55 0
4 39 57 0
4 -39 -57 0
7 39 58 0
7 -39 -58 0
9 40 41 0
9 -40 -41 0
7 40 42 0
7 -40 -42 0
4 40 45 0
4 -40 -45 0
9 40 51 0
9 -40 -51 0
2 40 56 0
2 -40 -56 0
2 40 60 0
2 -40 -60 0
6 41 43 0
6 -41 -43 0
9 41 44 0
9 -41 -44 0
7 41 45 0
7 -41 -45 0
10 41 50 0
10 -41 -50 0
2 41 57 0
2 -41 -57 0
4 42 45 0
4 -42 -45 0
8 42 47 0
8 -42 -47 0
9 42 48 0
9 -42 -48 0
6 42 49 0
6 -42 -49 0
8 42 51 0
8 -42 -51 0
10 42 57 0
10 -42 -57 0
3 43 44 0
3 -43 -44 0
10 43 45 0
10 -43 -45 0
6 43 47 0
6 -43 -47 0
10 43 49 0
10 -43 -49 0
5 43 52 0
5 -43 -52 0
6 43 54 0
6 -43 -54 0
10 44 45 0
10 -44 -45 0
8 44 50 0
8 -44 -50 0
9 44 56 0
9 -44 -56 0
6 44 58 0
6 -44 -58 0
7 44 60 0
7 -44 -60 0
10 45 48 0
10 -45 -48 0
10 45 52 0
10 -45 -52 0
4 45 60 0
4 -45 -60 0
9 46 48 0
9 -46 -48 0
6 46 54 0
6 -46 -54 0
7 46 57 0
7 -46 -57 0
8 46 60 0
8 -46 -60 0
8 47 49 0
8 -47 -49 0
8 47 50 0
8 -47 -50 0
3 47 51 0
3 -47 -51 0
7 47 54 0
7 -47 -54 0
5 48 49 0
5 -48 -49 0
2 48 51 0
2 -48 -51 0
8 48 55 0
8 -48 -55 0
9 48 58 0
9 -48 -58 0
9 48 59 0
9 -48 -59 0
7 49 52 0
7 -49 -52 0
5 49 56 0
5 -49 -56 0
7 49 58 0
7 -49 -58 0
6 50 51 0
6 -50 -51 0
7 50 52 0
7 -50 -52 0
6 50 53 0
6 -50 -53 0
2 50 54 0
2 -50 -54 0
6 51 53 0
6 -51 -53 0
1 51 56 0
1 -51 -56 0
8 51 59 0
8 -51 -59 0
6 51 60 0
6 -51 -60 0
9 52 53 0
9 -52 -53 0
6 52 59 0
6 -52 -59 0
2 53 54 0
2 -53 -54 0
5 53 59 0
5 -53 -59 0
6 53 60 0
6 -53 -60 0
1 54 57 0
1 -54 -57 0
9 54 60 0
9 -54 -60 0
4 55 58 0
4 -55 -58 0
7 55 59 0
7 -55 -59 0
5 55 60 0
5 -55 -60 0
2 56 58 0
2 -56 -58 0
5 56 60 0
5 -56 -60 0
